data;
param: ORDERS: orderLengths  orderNum canBeRelaxed :=
		1			158			38			1
		2			200			20			1
    	3			261			45			1
    	4			310			35			1
    	5			450			15			1
    	6			500			10			1;
	
param: STOCK: stockLengths stockNum stockCost :=
		1		1200 		100 		1
		2		1000 		100 		1;
		
param relaxCostMultiplier := 1;
param allowBasicPatterns := 0;